p tw 384 1504
1 33
2 34
3 35
4 36
5 37
6 38
7 39
8 40
9 41
10 42
11 43
12 44
13 45
14 46
15 47
16 48
17 49
18 50
19 51
20 52
21 53
22 54
23 55
24 56
25 57
26 58
27 59
28 60
29 61
30 62
31 63
32 64
33 65
33 66
33 67
33 68
33 69
34 67
34 88
34 103
34 104
34 105
35 123
35 132
35 137
35 158
35 160
36 72
36 143
36 151
36 153
36 154
37 68
37 91
37 119
37 120
37 121
38 91
38 92
38 93
38 94
38 95
39 76
39 104
39 135
39 145
39 147
40 77
40 114
40 136
40 151
40 152
41 86
41 97
41 106
41 110
41 111
42 107
42 112
42 116
42 117
42 118
43 66
43 79
43 88
43 89
43 90
44 103
44 112
44 113
44 114
44 115
45 65
45 70
45 71
45 72
45 73
46 74
46 75
46 76
46 77
46 78
47 92
47 98
47 110
47 122
47 125
48 85
48 106
48 107
48 108
48 109
49 82
49 119
49 142
49 143
49 144
50 70
50 84
50 85
50 86
50 87
51 101
51 108
51 148
51 155
51 157
52 84
52 96
52 100
52 101
52 102
53 130
53 139
53 148
53 149
53 150
54 117
54 134
54 139
54 140
54 141
55 79
55 80
55 81
55 82
55 83
56 71
56 94
56 116
56 126
56 129
57 74
57 96
57 97
57 98
57 99
58 134
58 135
58 136
58 137
58 138
59 127
59 140
59 153
59 155
59 156
60 100
60 120
60 142
60 145
60 146
61 80
61 113
61 122
61 123
61 124
62 75
62 130
62 131
62 132
62 133
63 89
63 131
63 149
63 158
63 159
64 81
64 93
64 126
64 127
64 128
65 66
65 67
65 68
65 69
65 70
65 71
65 72
65 73
66 67
66 68
66 69
66 79
66 88
66 89
66 90
67 68
67 69
67 88
67 103
67 104
67 105
68 69
68 91
68 119
68 120
68 121
69 161
69 162
69 163
69 164
69 165
70 71
70 72
70 73
70 84
70 85
70 86
70 87
71 72
71 73
71 94
71 116
71 126
71 129
72 73
72 143
72 151
72 153
72 154
73 161
73 166
73 167
73 168
73 169
74 75
74 76
74 77
74 78
74 96
74 97
74 98
74 99
75 76
75 77
75 78
75 130
75 131
75 132
75 133
76 77
76 78
76 104
76 135
76 145
76 147
77 78
77 114
77 136
77 151
77 152
78 170
78 171
78 172
78 173
78 174
79 80
79 81
79 82
79 83
79 88
79 89
79 90
80 81
80 82
80 83
80 113
80 122
80 123
80 124
81 82
81 83
81 93
81 126
81 127
81 128
82 83
82 119
82 142
82 143
82 144
83 175
83 176
83 177
83 178
83 179
84 85
84 86
84 87
84 96
84 100
84 101
84 102
85 86
85 87
85 106
85 107
85 108
85 109
86 87
86 97
86 106
86 110
86 111
87 166
87 180
87 181
87 182
87 183
88 89
88 90
88 103
88 104
88 105
89 90
89 131
89 149
89 158
89 159
90 162
90 175
90 184
90 185
90 186
91 92
91 93
91 94
91 95
91 119
91 120
91 121
92 93
92 94
92 95
92 98
92 110
92 122
92 125
93 94
93 95
93 126
93 127
93 128
94 95
94 116
94 126
94 129
95 187
95 188
95 189
95 190
95 191
96 97
96 98
96 99
96 100
96 101
96 102
97 98
97 99
97 106
97 110
97 111
98 99
98 110
98 122
98 125
99 170
99 192
99 193
99 194
99 195
100 101
100 102
100 120
100 142
100 145
100 146
101 102
101 108
101 148
101 155
101 157
102 180
102 192
102 196
102 197
102 198
103 104
103 105
103 112
103 113
103 114
103 115
104 105
104 135
104 145
104 147
105 163
105 184
105 199
105 200
105 201
106 107
106 108
106 109
106 110
106 111
107 108
107 109
107 112
107 116
107 117
107 118
108 109
108 148
108 155
108 157
109 181
109 202
109 203
109 204
109 205
110 111
110 122
110 125
111 182
111 193
111 202
111 206
111 207
112 113
112 114
112 115
112 116
112 117
112 118
113 114
113 115
113 122
113 123
113 124
114 115
114 136
114 151
114 152
115 199
115 208
115 209
115 210
115 211
116 117
116 118
116 126
116 129
117 118
117 134
117 139
117 140
117 141
118 203
118 208
118 212
118 213
118 214
119 120
119 121
119 142
119 143
119 144
120 121
120 142
120 145
120 146
121 164
121 187
121 215
121 216
121 217
122 123
122 124
122 125
123 124
123 132
123 137
123 158
123 160
124 176
124 209
124 218
124 219
124 220
125 188
125 194
125 206
125 218
125 221
126 127
126 128
126 129
127 128
127 140
127 153
127 155
127 156
128 177
128 189
128 222
128 223
128 224
129 167
129 190
129 212
129 222
129 225
130 131
130 132
130 133
130 139
130 148
130 149
130 150
131 132
131 133
131 149
131 158
131 159
132 133
132 137
132 158
132 160
133 171
133 226
133 227
133 228
133 229
134 135
134 136
134 137
134 138
134 139
134 140
134 141
135 136
135 137
135 138
135 145
135 147
136 137
136 138
136 151
136 152
137 138
137 158
137 160
138 230
138 231
138 232
138 233
138 234
139 140
139 141
139 148
139 149
139 150
140 141
140 153
140 155
140 156
141 213
141 230
141 235
141 236
141 237
142 143
142 144
142 145
142 146
143 144
143 151
143 153
143 154
144 178
144 215
144 238
144 239
144 240
145 146
145 147
146 196
146 216
146 238
146 241
146 242
147 172
147 200
147 231
147 241
147 243
148 149
148 150
148 155
148 157
149 150
149 158
149 159
150 226
150 235
150 244
150 245
150 246
151 152
151 153
151 154
152 173
152 210
152 232
152 247
152 248
153 154
153 155
153 156
154 168
154 239
154 247
154 249
154 250
155 156
155 157
156 223
156 236
156 249
156 251
156 252
157 197
157 204
157 244
157 251
157 253
158 159
158 160
159 185
159 227
159 245
159 254
159 255
160 219
160 228
160 233
160 254
160 256
161 162
161 163
161 164
161 165
161 166
161 167
161 168
161 169
162 163
162 164
162 165
162 175
162 184
162 185
162 186
163 164
163 165
163 184
163 199
163 200
163 201
164 165
164 187
164 215
164 216
164 217
165 257
165 258
165 259
165 260
165 261
166 167
166 168
166 169
166 180
166 181
166 182
166 183
167 168
167 169
167 190
167 212
167 222
167 225
168 169
168 239
168 247
168 249
168 250
169 257
169 262
169 263
169 264
169 265
170 171
170 172
170 173
170 174
170 192
170 193
170 194
170 195
171 172
171 173
171 174
171 226
171 227
171 228
171 229
172 173
172 174
172 200
172 231
172 241
172 243
173 174
173 210
173 232
173 247
173 248
174 266
174 267
174 268
174 269
174 270
175 176
175 177
175 178
175 179
175 184
175 185
175 186
176 177
176 178
176 179
176 209
176 218
176 219
176 220
177 178
177 179
177 189
177 222
177 223
177 224
178 179
178 215
178 238
178 239
178 240
179 271
179 272
179 273
179 274
179 275
180 181
180 182
180 183
180 192
180 196
180 197
180 198
181 182
181 183
181 202
181 203
181 204
181 205
182 183
182 193
182 202
182 206
182 207
183 262
183 276
183 277
183 278
183 279
184 185
184 186
184 199
184 200
184 201
185 186
185 227
185 245
185 254
185 255
186 258
186 271
186 280
186 281
186 282
187 188
187 189
187 190
187 191
187 215
187 216
187 217
188 189
188 190
188 191
188 194
188 206
188 218
188 221
189 190
189 191
189 222
189 223
189 224
190 191
190 212
190 222
190 225
191 283
191 284
191 285
191 286
191 287
192 193
192 194
192 195
192 196
192 197
192 198
193 194
193 195
193 202
193 206
193 207
194 195
194 206
194 218
194 221
195 266
195 288
195 289
195 290
195 291
196 197
196 198
196 216
196 238
196 241
196 242
197 198
197 204
197 244
197 251
197 253
198 276
198 288
198 292
198 293
198 294
199 200
199 201
199 208
199 209
199 210
199 211
200 201
200 231
200 241
200 243
201 259
201 280
201 295
201 296
201 297
202 203
202 204
202 205
202 206
202 207
203 204
203 205
203 208
203 212
203 213
203 214
204 205
204 244
204 251
204 253
205 277
205 298
205 299
205 300
205 301
206 207
206 218
206 221
207 278
207 289
207 298
207 302
207 303
208 209
208 210
208 211
208 212
208 213
208 214
209 210
209 211
209 218
209 219
209 220
210 211
210 232
210 247
210 248
211 295
211 304
211 305
211 306
211 307
212 213
212 214
212 222
212 225
213 214
213 230
213 235
213 236
213 237
214 299
214 304
214 308
214 309
214 310
215 216
215 217
215 238
215 239
215 240
216 217
216 238
216 241
216 242
217 260
217 283
217 311
217 312
217 313
218 219
218 220
218 221
219 220
219 228
219 233
219 254
219 256
220 272
220 305
220 314
220 315
220 316
221 284
221 290
221 302
221 314
221 317
222 223
222 224
222 225
223 224
223 236
223 249
223 251
223 252
224 273
224 285
224 318
224 319
224 320
225 263
225 286
225 308
225 318
225 321
226 227
226 228
226 229
226 235
226 244
226 245
226 246
227 228
227 229
227 245
227 254
227 255
228 229
228 233
228 254
228 256
229 267
229 322
229 323
229 324
229 325
230 231
230 232
230 233
230 234
230 235
230 236
230 237
231 232
231 233
231 234
231 241
231 243
232 233
232 234
232 247
232 248
233 234
233 254
233 256
234 326
234 327
234 328
234 329
234 330
235 236
235 237
235 244
235 245
235 246
236 237
236 249
236 251
236 252
237 309
237 326
237 331
237 332
237 333
238 239
238 240
238 241
238 242
239 240
239 247
239 249
239 250
240 274
240 311
240 334
240 335
240 336
241 242
241 243
242 292
242 312
242 334
242 337
242 338
243 268
243 296
243 327
243 337
243 339
244 245
244 246
244 251
244 253
245 246
245 254
245 255
246 322
246 331
246 340
246 341
246 342
247 248
247 249
247 250
248 269
248 306
248 328
248 343
248 344
249 250
249 251
249 252
250 264
250 335
250 343
250 345
250 346
251 252
251 253
252 319
252 332
252 345
252 347
252 348
253 293
253 300
253 340
253 347
253 349
254 255
254 256
255 281
255 323
255 341
255 350
255 351
256 315
256 324
256 329
256 350
256 352
257 258
257 259
257 260
257 261
257 262
257 263
257 264
257 265
258 259
258 260
258 261
258 271
258 280
258 281
258 282
259 260
259 261
259 280
259 295
259 296
259 297
260 261
260 283
260 311
260 312
260 313
261 384
262 263
262 264
262 265
262 276
262 277
262 278
262 279
263 264
263 265
263 286
263 308
263 318
263 321
264 265
264 335
264 343
264 345
264 346
265 372
266 267
266 268
266 269
266 270
266 288
266 289
266 290
266 291
267 268
267 269
267 270
267 322
267 323
267 324
267 325
268 269
268 270
268 296
268 327
268 337
268 339
269 270
269 306
269 328
269 343
269 344
270 371
271 272
271 273
271 274
271 275
271 280
271 281
271 282
272 273
272 274
272 275
272 305
272 314
272 315
272 316
273 274
273 275
273 285
273 318
273 319
273 320
274 275
274 311
274 334
274 335
274 336
275 362
276 277
276 278
276 279
276 288
276 292
276 293
276 294
277 278
277 279
277 298
277 299
277 300
277 301
278 279
278 289
278 298
278 302
278 303
279 367
280 281
280 282
280 295
280 296
280 297
281 282
281 323
281 341
281 350
281 351
282 374
283 284
283 285
283 286
283 287
283 311
283 312
283 313
284 285
284 286
284 287
284 290
284 302
284 314
284 317
285 286
285 287
285 318
285 319
285 320
286 287
286 308
286 318
286 321
287 379
288 289
288 290
288 291
288 292
288 293
288 294
289 290
289 291
289 298
289 302
289 303
290 291
290 302
290 314
290 317
291 360
292 293
292 294
292 312
292 334
292 337
292 338
293 294
293 300
293 340
293 347
293 349
294 365
295 296
295 297
295 304
295 305
295 306
295 307
296 297
296 327
296 337
296 339
297 383
298 299
298 300
298 301
298 302
298 303
299 300
299 301
299 304
299 308
299 309
299 310
300 301
300 340
300 347
300 349
301 369
302 303
302 314
302 317
303 376
304 305
304 306
304 307
304 308
304 309
304 310
305 306
305 307
305 314
305 315
305 316
306 307
306 328
306 343
306 344
307 373
308 309
308 310
308 318
308 321
309 310
309 326
309 331
309 332
309 333
310 375
311 312
311 313
311 334
311 335
311 336
312 313
312 334
312 337
312 338
313 380
314 315
314 316
314 317
315 316
315 324
315 329
315 350
315 352
316 356
317 370
318 319
318 320
318 321
319 320
319 332
319 345
319 347
319 348
320 353
321 361
322 323
322 324
322 325
322 331
322 340
322 341
322 342
323 324
323 325
323 341
323 350
323 351
324 325
324 329
324 350
324 352
325 355
326 327
326 328
326 329
326 330
326 331
326 332
326 333
327 328
327 329
327 330
327 337
327 339
328 329
328 330
328 343
328 344
329 330
329 350
329 352
330 359
331 332
331 333
331 340
331 341
331 342
332 333
332 345
332 347
332 348
333 363
334 335
334 336
334 337
334 338
335 336
335 343
335 345
335 346
336 368
337 338
337 339
338 357
339 378
340 341
340 342
340 347
340 349
341 342
341 350
341 351
342 364
343 344
343 345
343 346
344 377
345 346
345 347
345 348
346 381
347 348
347 349
348 358
349 366
350 351
350 352
351 354
352 382
